RT is False
Default write of storage_offers_DA.csv just to have a file (but constraint should be inactive)
Reading model...
...model read.
creating competitive generators file...
...competitive generators recorded.
Loading data...
.. day-ahead data read.
Compiling instance...
...instance created.
Creating Offer Mitigation (model will solve as dispatch if TRUE)...
NOTE: storage offers will not be mitigated
...storage offer mitigation file created
Converting model to MPEC...
...converted
NOTE: initial MIP solve with only storage competitive to get feasible solution
Solving...

Welcome to IBM(R) ILOG(R) CPLEX(R) Interactive Optimizer 12.9.0.0
  with Simplex, Mixed Integer & Barrier Optimizers
5725-A06 5725-A29 5724-Y48 5724-Y49 5724-Y54 5724-Y55 5655-Y21
Copyright IBM Corp. 1988, 2019.  All Rights Reserved.

Type 'help' for a list of available commands.
Type 'help' followed by a command name for more
information on commands.

CPLEX> Logfile 'cplex.log' closed.
Logfile 'C:\Users\llavin\Desktop\test919\logs\tmpcx079qe6.cplex.log' open.
CPLEX> New value for parallel optimization mode: -1
CPLEX> New value for mixed integer optimality gap tolerance: 0.01
CPLEX> New value for integrality tolerance: 1e-09
CPLEX> New value for feasibility tolerance: 0.01
CPLEX> New value for deterministic time limit in ticks: 75000
CPLEX> Problem 'C:\Users\llavin\Desktop\test919\logs\tmpxt5gdtgh.pyomo.lp' read.
Read time = 0.27 sec. (14.73 ticks)
CPLEX> Problem name         : C:\Users\llavin\Desktop\test919\logs\tmpxt5gdtgh.pyomo.lp
Objective sense      : Maximize
Variables            :   53805  [Nneg: 1,  Box: 22000,  Free: 4464,
                                 Binary: 27340]
Objective nonzeros   :    8990
Linear constraints   :  123205  [Less: 41346,  Greater: 59096,  Equal: 22763]
  Nonzeros           :  291714
  RHS nonzeros       :   67452

Variables            : Min LB: -5000.000        Max UB: 1000000.       
Objective nonzeros   : Min   : 0.7000000        Max   : 2500.000       
Linear constraints   :
  Nonzeros           : Min   : 0.7000000        Max   : 1000000.       
  RHS nonzeros       : Min   : 0.7000000        Max   : 1000000.       
CPLEX> CPXPARAM_Parallel                                -1
CPXPARAM_Simplex_Tolerances_Feasibility          0.01
CPXPARAM_DetTimeLimit                            75000
CPXPARAM_MIP_Tolerances_MIPGap                   0.01
CPXPARAM_MIP_Tolerances_Integrality              1.0000000000000001e-09
Tried aggregator 3 times.
MIP Presolve eliminated 88913 rows and 19211 columns.
MIP Presolve added 3341 rows and 0 columns.
MIP Presolve modified 24755 coefficients.
Aggregator did 12983 substitutions.
Reduced MIP has 24650 rows, 21029 columns, and 70352 nonzeros.
Reduced MIP has 8311 binaries, 0 generals, 0 SOSs, and 0 indicators.
Presolve time = 0.30 sec. (176.58 ticks)
Probing fixed 403 vars, tightened 2807 bounds.
Probing time = 1.20 sec. (882.90 ticks)
Tried aggregator 2 times.
MIP Presolve eliminated 909 rows and 807 columns.
MIP Presolve modified 2174 coefficients.
Aggregator did 32 substitutions.
Reduced MIP has 23709 rows, 20190 columns, and 67626 nonzeros.
Reduced MIP has 7908 binaries, 0 generals, 0 SOSs, and 0 indicators.
Presolve time = 0.11 sec. (69.59 ticks)
Probing fixed 0 vars, tightened 3 bounds.
Probing time = 0.08 sec. (35.47 ticks)
Clique table members: 6464.
MIP emphasis: balance optimality and feasibility.
MIP search method: dynamic search.
Parallel mode: opportunistic, using up to 32 threads.
Root relaxation solution time = 0.47 sec. (535.26 ticks)

        Nodes                                         Cuts/
   Node  Left     Objective  IInf  Best Integer    Best Bound    ItCnt     Gap

      0     0     3321.7439   721                   3321.7439     6345         
      0     0     3321.7439    18                     Cuts: 7     6350         
      0     0     3321.7439    17                     Cuts: 7     6353         
      0    15    infeasible                           Cuts: 3     7084         
Elapsed time = 8.97 sec. (5344.89 ticks, tree = 0.20 MB, solutions = 0)
*   395+  147                         2658.5762     3267.0751            22.89%
    723   154     2920.9443     1     2658.5762     3267.0751    14645   22.89%
   1069   213     2948.9635     2     2658.5762     3267.0751    20355   22.89%
   1371   302        cutoff           2658.5762     3267.0751    20975   22.89%
   1624   420     2970.3152     2     2658.5762     3267.0751    21767   22.89%
   1818   491        cutoff           2658.5762     3267.0751    22304   22.89%
   1965   477     3027.8643   205     2658.5762     3267.0751    22124   22.89%
   2110   512     3027.8643   191     2658.5762     3267.0751    22377   22.89%
   2241   526     3027.8643   176     2658.5762     3267.0751    22400   22.89%
   2766   458        cutoff           3012.6269     3267.0751    23123    8.45%
Elapsed time = 22.47 sec. (8443.79 ticks, tree = 3.88 MB, solutions = 2)
   3357   438     3032.6355     1     3012.6269     3267.0751    23168    8.45%
   4018   380     3137.9904     1     3012.6269     3267.0751    24436    8.45%
   4686   388     3032.6355     1     3012.6269     3267.0751    24695    8.45%
   5127   409        cutoff           3012.6269     3267.0751    25226    8.45%
   5428   805     3123.1005     1     3012.6269     3267.0751    27868    8.45%
   5693   841     3256.4745     1     3012.6269     3267.0751    28332    8.45%
   5940   940     3172.8025     2     3012.6269     3267.0751    29310    8.45%
   6182   943     3032.6355     3     3012.6269     3267.0751    29398    8.45%
   6418   996     3228.7624     1     3012.6269     3267.0751    29856    8.45%
   6632   995     3256.4745     1     3012.6269     3267.0751    29794    8.45%
Elapsed time = 46.39 sec. (18006.34 ticks, tree = 10.50 MB, solutions = 2)
   6831  1005     3095.3884     1     3012.6269     3267.0751    29953    8.45%
   7015  1021     3123.1005     1     3012.6269     3267.0751    30138    8.45%
   7211  1032        cutoff           3012.6269     3267.0751    30325    8.45%
   7406  1045     3032.6355     3     3012.6269     3267.0751    30491    8.45%
   7601  1046        cutoff           3012.6269     3267.0751    30523    8.45%
   7775  1045        cutoff           3012.6269     3267.0751    30485    8.45%
   7960  1046        cutoff           3012.6269     3267.0751    30590    8.45%
   8152  1060     3123.1005     1     3012.6269     3267.0751    30923    8.45%
   8314  1108     3032.6355     1     3012.6269     3267.0751    31430    8.45%
   8449  1053     3039.4285     2     3012.6269     3267.0751    30717    8.45%
Elapsed time = 60.94 sec. (27597.03 ticks, tree = 11.15 MB, solutions = 2)
   8630  1090     3039.4285     2     3012.6269     3267.0751    31226    8.45%
   8795  1091     3032.6355     3     3012.6269     3267.0751    31207    8.45%
   8950  1103     3172.8025     2     3012.6269     3267.0751    31362    8.45%
   9095  1114        cutoff           3012.6269     3267.0751    31555    8.45%
   9248  1218     3032.6355     1     3012.6269     3267.0751    32816    8.45%
   9398  1145        cutoff           3012.6269     3267.0751    32065    8.45%
   9547  1153        cutoff           3012.6269     3267.0751    32156    8.45%
   9703  1157     3095.3884     1     3012.6269     3267.0751    32311    8.45%
   9849  1142        cutoff           3012.6269     3267.0751    32021    8.45%
   9970  1158     3095.3884     1     3012.6269     3267.0751    32342    8.45%
Elapsed time = 77.27 sec. (37182.78 ticks, tree = 11.71 MB, solutions = 2)
  10094  1217        cutoff           3012.6269     3267.0751    32811    8.45%
  10223  1166     3228.7624     1     3012.6269     3267.0751    32312    8.45%
  10350  1252     3032.6355     1     3012.6269     3267.0751    33040    8.45%
  10483  1252     3032.6355     1     3012.6269     3267.0751    33043    8.45%
  10587  1206        cutoff           3012.6269     3267.0751    32693    8.45%
  10685  1256        cutoff           3012.6269     3267.0751    33080    8.45%
  10775  1267        cutoff           3012.6269     3267.0751    33186    8.45%
  10848  1249     3032.6355     1     3012.6269     3267.0751    33019    8.45%
  10897  1254     3137.9904     1     3012.6269     3267.0751    33063    8.45%
  10953  1265        cutoff           3012.6269     3267.0751    33178    8.45%
Elapsed time = 78.42 sec. (46832.08 ticks, tree = 12.62 MB, solutions = 2)
  10968  1346    infeasible           3012.6269     3170.1087    38732    5.23%

Clique cuts applied:  5
Implied bound cuts applied:  23
Flow cuts applied:  7
Mixed integer rounding cuts applied:  6
Gomory fractional cuts applied:  5

Root node processing (before b&c):
  Real time             =    7.77 sec. (5334.58 ticks)
Parallel b&c, 32 threads:
  Real time             =   77.09 sec. (44745.06 ticks)
  Sync time (average)   =    1.98 sec.
  Wait time (average)   =    0.16 sec.
                          ------------
Total (root+branch&cut) =   84.86 sec. (50079.65 ticks)

Solution pool: 2 solutions saved.

MIP - Integer optimal, tolerance (0.01/1e-06):  Objective =  3.0126268887e+03
Current MIP best bound =  3.0426426847e+03 (gap = 30.0158, 1.00%)
Solution time =   84.89 sec.  Iterations = 43254  Nodes = 11767 (18)
Deterministic time = 50079.80 ticks  (589.94 ticks/sec)

CPLEX> Incumbent solution written to file 'C:\Users\llavin\Desktop\test919\logs\tmpzvxn5yb5.cplex.sol'.
CPLEX> NOTE: no warmstart specified for MIP iteration, default behavior is true
NOTE: resolving with all competitive generators using storage-only solution to warmstart
Solving...

Welcome to IBM(R) ILOG(R) CPLEX(R) Interactive Optimizer 12.9.0.0
  with Simplex, Mixed Integer & Barrier Optimizers
5725-A06 5725-A29 5724-Y48 5724-Y49 5724-Y54 5724-Y55 5655-Y21
Copyright IBM Corp. 1988, 2019.  All Rights Reserved.

Type 'help' for a list of available commands.
Type 'help' followed by a command name for more
information on commands.

CPLEX> Logfile 'cplex.log' closed.
Logfile 'C:\Users\llavin\Desktop\test919\logs\tmpcibw18qy.cplex.log' open.
CPLEX> New value for parallel optimization mode: -1
CPLEX> New value for mixed integer optimality gap tolerance: 0.01
CPLEX> New value for integrality tolerance: 1e-09
CPLEX> New value for feasibility tolerance: 0.01
CPLEX> New value for deterministic time limit in ticks: 75000
CPLEX> Problem 'C:\Users\llavin\Desktop\test919\logs\tmp8h7ebiyc.pyomo.lp' read.
Read time = 0.23 sec. (14.75 ticks)
CPLEX> MIP start file 'C:\Users\llavin\Desktop\test919\logs\tmpqjetsl6r.cplex.mst' read.
CPLEX> Problem name         : C:\Users\llavin\Desktop\test919\logs\tmp8h7ebiyc.pyomo.lp
Objective sense      : Maximize
Variables            :   54525  [Nneg: 1,  Box: 22720,  Free: 4464,
                                 Binary: 27340]
Objective nonzeros   :    9688
Linear constraints   :  123205  [Less: 41346,  Greater: 59096,  Equal: 22763]
  Nonzeros           :  291714
  RHS nonzeros       :   67452

Variables            : Min LB: -5000.000        Max UB: 1000000.       
Objective nonzeros   : Min   : 0.7000000        Max   : 2500.000       
Linear constraints   :
  Nonzeros           : Min   : 0.7000000        Max   : 1000000.       
  RHS nonzeros       : Min   : 0.7000000        Max   : 1000000.       
CPLEX> CPXPARAM_Parallel                                -1
CPXPARAM_Simplex_Tolerances_Feasibility          0.01
CPXPARAM_DetTimeLimit                            75000
CPXPARAM_MIP_Tolerances_MIPGap                   0.01
CPXPARAM_MIP_Tolerances_Integrality              1.0000000000000001e-09
Warning:  No solution found from 1 MIP starts.
Retaining values of one MIP start for possible repair.
Tried aggregator 3 times.
MIP Presolve eliminated 88913 rows and 19931 columns.
MIP Presolve added 3341 rows and 0 columns.
MIP Presolve modified 24755 coefficients.
Aggregator did 12983 substitutions.
Reduced MIP has 24650 rows, 21029 columns, and 70352 nonzeros.
Reduced MIP has 8311 binaries, 0 generals, 0 SOSs, and 0 indicators.
Presolve time = 0.30 sec. (176.95 ticks)
Probing fixed 403 vars, tightened 2807 bounds.
Probing time = 1.22 sec. (882.90 ticks)
Tried aggregator 2 times.
MIP Presolve eliminated 909 rows and 807 columns.
MIP Presolve modified 2174 coefficients.
Aggregator did 32 substitutions.
Reduced MIP has 23709 rows, 20190 columns, and 67626 nonzeros.
Reduced MIP has 7908 binaries, 0 generals, 0 SOSs, and 0 indicators.
Presolve time = 0.09 sec. (69.61 ticks)
Probing fixed 0 vars, tightened 3 bounds.
Probing time = 0.06 sec. (35.47 ticks)
Clique table members: 6464.
MIP emphasis: balance optimality and feasibility.
MIP search method: dynamic search.
Parallel mode: opportunistic, using up to 32 threads.
Root relaxation solution time = 0.38 sec. (278.40 ticks)

        Nodes                                         Cuts/
   Node  Left     Objective  IInf  Best Integer    Best Bound    ItCnt     Gap

      0     0    56237.7429  1767                  56237.7429     6280         
      0     0    53105.1169   684                   Cuts: 548     6583         
      0     0    52615.6233   588                   Cuts: 297     6701         
      0     0    52591.5578   556                   Cuts: 165     6766         
      0     0    52590.5154   541                    Cuts: 82     6814         
      0     0    52589.9147   515                    Cuts: 75     6849         
      0     0    52589.9147   509                    Cuts: 63     6888         
      0     0    52589.9147   507                    Cuts: 73     6911         
      0     0    52589.9147   483                    Cuts: 60     6937         
      0     0    52589.9147   483                    Cuts: 43     6941         
Repair heuristic found nothing.
      0    20    infeasible                           Cuts: 9     7115         
Elapsed time = 10.03 sec. (6027.07 ticks, tree = 0.02 MB, solutions = 0)
    618   134    39723.6919   449                  49333.2211     9004         
   1297   377    40408.5296   442                  49333.2211    20328         
   1904   437    30934.9920   429                  49333.2211    22882         
   2482   737     6938.5503   394                  49333.2211    26903         
   3212  1027    16209.9923   368                  49333.2211    30375         
   4332  2023    11973.0494   316                  49333.2211    35484         
   5979  1906    12172.0133   341                  49333.2211    35194         
   7277  5459    23272.0413   320                  49333.2211    38081         
   8363  6046    14982.9858   407                  49333.2211    38437         
* 11711+ 6305                        11304.4205    49333.2211           336.41%
Elapsed time = 28.31 sec. (8966.81 ticks, tree = 51.57 MB, solutions = 2)
* 13596  6419      integral     0    18377.3143    49333.2211    43218  168.45%
* 14119  6536      integral     0    22666.2677    49333.2211    43311  117.65%
  14752  3987    41681.6299   431    22666.2677    49333.2211    43428  117.65%
  14763  1525    infeasible          22666.2677    24106.4598    55725    6.35%
  16675    74    23046.7752    54    22666.2677    23910.9269    56668    5.49%
  17524   549    23495.8140    25    22666.2677    23899.0025    60138    5.44%
  18137  1147    23402.2743    24    22666.2677    23899.0025    64644    5.44%
  19526  2488    23068.4921    11    22666.2677    23899.0025    77906    5.44%
  20474  2182    22803.1862     7    22666.2677    23798.5276    74583    5.00%
  21327  3287    infeasible          22666.2677    23798.5276    87057    5.00%
* 21655  3999      integral     0    23553.0615    23798.5276    97882    1.04%
  22201  3049    23586.7436    23    23553.0615    23798.5276    84342    1.04%
Elapsed time = 68.09 sec. (24113.81 ticks, tree = 27.69 MB, solutions = 13)
  22505  2855    23553.0873    12    23553.0615    23798.5276    82078    1.04%
  22749  3460    23304.5823     4    23553.0615    23798.5276    88452    1.04%
  22953  3479    22700.8174     9    23553.0615    23798.5276    88375    1.04%
  23076  3783        cutoff          23553.0615    23798.5276    91115    1.04%
  23182  4233    22700.8174     9    23553.0615    23798.5276   100123    1.04%
  23293  3805    22736.4873     8    23553.0615    23798.5276    91927    1.04%
  23368  4165        cutoff          23553.0615    23798.5276    99369    1.04%
  23430  4383    22670.9615     8    23553.0615    23741.8111   102065    0.80%

GUB cover cuts applied:  2
Clique cuts applied:  22
Cover cuts applied:  8
Implied bound cuts applied:  68
Flow cuts applied:  530
Mixed integer rounding cuts applied:  165
Zero-half cuts applied:  1
Gomory fractional cuts applied:  70

Root node processing (before b&c):
  Real time             =    8.97 sec. (6013.37 ticks)
Parallel b&c, 32 threads:
  Real time             =   60.67 sec. (26705.78 ticks)
  Sync time (average)   =    3.53 sec.
  Wait time (average)   =    0.25 sec.
                          ------------
Total (root+branch&cut) =   69.64 sec. (32719.15 ticks)

Solution pool: 13 solutions saved.

MIP - Integer optimal, tolerance (0.01/1e-06):  Objective =  2.3553061497e+04
Current MIP best bound =  2.3741811138e+04 (gap = 188.75, 0.80%)
Solution time =   69.67 sec.  Iterations = 114144  Nodes = 23443 (931)
Deterministic time = 32719.31 ticks  (469.62 ticks/sec)

CPLEX> Incumbent solution written to file 'C:\Users\llavin\Desktop\test919\logs\tmpedqdlr9y.cplex.sol'.
CPLEX> Exporting results... 
